unknown
(model
; cardinality of BoundSet is 1
(declare-sort BoundSet 0)
; rep: @uc_BoundSet_0
(declare-sort UnboundSet 0)
(define-fun IsDrinks ((BOUND_VARIABLE_352 BoundSet)) Bool true)
(define-fun IsParties ((BOUND_VARIABLE_352 BoundSet)) Bool true)
(define-fun IsNotTrusted ((BOUND_VARIABLE_364 BoundSet) (BOUND_VARIABLE_365 BoundSet)) Bool false)
)
